<?xml version = "1.0" standalone="yes"?>
<!-- This file has been generated by DOcplex version 2.23.222  -->
<CPLEXSolution version="1.0">
 <header
   problemName="CVRP"
   objectiveValue="17842.1"
  />
 <variables>
  <variable name="x_0_3" index="2" value="1.00000"/>
  <variable name="x_0_4" index="3" value="1.00000"/>
  <variable name="x_0_5" index="4" value="1.00000"/>
  <variable name="x_0_8" index="7" value="1.00000"/>
  <variable name="x_0_9" index="8" value="1.00000"/>
  <variable name="x_0_10" index="9" value="1.00000"/>
  <variable name="x_0_12" index="11" value="1.00000"/>
  <variable name="x_0_13" index="12" value="1.00000"/>
  <variable name="x_0_15" index="14" value="1.00000"/>
  <variable name="x_0_16" index="15" value="1.00000"/>
  <variable name="x_0_17" index="16" value="1.00000"/>
  <variable name="x_0_18" index="17" value="1.00000"/>
  <variable name="x_0_20" index="19" value="1.00000"/>
  <variable name="x_0_21" index="20" value="1.00000"/>
  <variable name="x_0_22" index="21" value="1.00000"/>
  <variable name="x_0_24" index="23" value="1.00000"/>
  <variable name="x_1_0" index="27" value="1.00000"/>
  <variable name="x_2_0" index="54" value="1.00000"/>
  <variable name="x_3_26" index="106" value="1.00000"/>
  <variable name="x_4_0" index="108" value="1.00000"/>
  <variable name="x_5_23" index="157" value="1.00000"/>
  <variable name="x_6_1" index="163" value="1.00000"/>
  <variable name="x_7_6" index="195" value="1.00000"/>
  <variable name="x_8_19" index="234" value="1.00000"/>
  <variable name="x_9_11" index="253" value="1.00000"/>
  <variable name="x_10_7" index="277" value="1.00000"/>
  <variable name="x_11_0" index="297" value="1.00000"/>
  <variable name="x_12_25" index="348" value="1.00000"/>
  <variable name="x_13_0" index="351" value="1.00000"/>
  <variable name="x_14_0" index="378" value="1.00000"/>
  <variable name="x_15_27" index="431" value="1.00000"/>
  <variable name="x_16_0" index="432" value="1.00000"/>
  <variable name="x_17_0" index="459" value="1.00000"/>
  <variable name="x_18_0" index="486" value="1.00000"/>
  <variable name="x_19_0" index="513" value="1.00000"/>
  <variable name="x_20_0" index="540" value="1.00000"/>
  <variable name="x_21_0" index="567" value="1.00000"/>
  <variable name="x_22_2" index="596" value="1.00000"/>
  <variable name="x_23_0" index="621" value="1.00000"/>
  <variable name="x_24_0" index="648" value="1.00000"/>
  <variable name="x_25_14" index="689" value="1.00000"/>
  <variable name="x_26_0" index="702" value="1.00000"/>
  <variable name="x_27_0" index="729" value="1.00000"/>
  <variable name="u_1" index="756" value="74.00000"/>
  <variable name="u_2" index="757" value="71.00000"/>
  <variable name="u_3" index="758" value="61.00000"/>
  <variable name="u_4" index="759" value="74.00000"/>
  <variable name="u_5" index="760" value="5.00000"/>
  <variable name="u_6" index="761" value="51.00000"/>
  <variable name="u_7" index="762" value="39.00000"/>
  <variable name="u_8" index="763" value="44.00000"/>
  <variable name="u_9" index="764" value="33.00000"/>
  <variable name="u_10" index="765" value="12.00000"/>
  <variable name="u_11" index="766" value="73.00000"/>
  <variable name="u_12" index="767" value="52.00000"/>
  <variable name="u_13" index="768" value="74.00000"/>
  <variable name="u_14" index="769" value="70.00000"/>
  <variable name="u_15" index="770" value="62.00000"/>
  <variable name="u_16" index="771" value="71.00000"/>
  <variable name="u_17" index="772" value="71.00000"/>
  <variable name="u_18" index="773" value="74.00000"/>
  <variable name="u_19" index="774" value="73.00000"/>
  <variable name="u_20" index="775" value="68.00000"/>
  <variable name="u_21" index="776" value="73.00000"/>
  <variable name="u_22" index="777" value="19.00000"/>
  <variable name="u_23" index="778" value="61.00000"/>
  <variable name="u_24" index="779" value="74.00000"/>
  <variable name="u_25" index="780" value="63.00000"/>
  <variable name="u_26" index="781" value="74.00000"/>
  <variable name="u_27" index="782" value="74.00000"/>
 </variables>
</CPLEXSolution>
